SCIP version 5.0.0 [precision: 8 byte] [memory: block] [mode: optimized] [LP solver: NONE] [GitHash: 3bbd232]
Copyright (C) 2002-2017 Konrad-Zuse-Zentrum fuer Informationstechnik Berlin (ZIB)

External codes: 
  Readline EditLine w  GNU library for command line editing (gnu.org/s/readline)
  CppAD 20160000.1     Algorithmic Differentiation of C++ algorithms developed by B. Bell (www.coin-or.org/CppAD)
  ZLIB 1.2.5           General purpose compression library by J. Gailly and M. Adler (zlib.net)
  GMP 6.1.2            GNU Multiple Precision Arithmetic Library developed by T. Granlund (gmplib.org)

user parameter file <scip.set> not found - using default parameters

read problem <../../Split_data/output/seismic-bumps/5/0_sample_seismic-bumps.logreg>
============

File name	:	../../Split_data/output/seismic-bumps/5/0_sample_seismic-bumps.logreg
Problem name 	:	0_sample_seismic-bumps
Number of data	:	2067
Number of var	:	21
The given data has linear dependence
4 sets of column vector are linearly dependent:
{ 2 3}, { 4 5 6}, { 7 8}, { 13 14 15}, 

[dim=1] time: 0.034597
[dim=2] time: 0.068968
[dim=3] time: 0.10142
[dim=4] time: 0.130959
[dim=5] time: 0.161949
[dim=6] time: 0.188432
[dim=7] time: 0.21497
[dim=8] time: 0.237695
[dim=9] Time of forward = 0.250589sec.
AIC: 872.109
k: 8

[dim=17] time: 0.397197
[dim=16] time: 2.86933
[dim=15] time: 2.91459
[dim=14] time: 3.24086
[dim=13] time: 3.51298
[dim=12] time: 4.00589
[dim=11] time: 4.03233
[dim=10] Time of backward = 4.33878sec.
AIC: 870.362
k: 11
